\ENCODING=ISO-8859-1
\Problem name: IloCplex

Minimize
 obj1: 1000000 λ0 + 1000000 λ1 + 1000000 λ2 + 1000000 λ3
       + 1000000 λ4 + 1000000 λ5 + 1000000 λ6 + 1000000 λ7
       + 1000000 λ8 + 1000000 λ9 + 1000000 λ10 + 1000000 λ11
       + 1000000 λ12 + 1000000 λ13 + 1000000 λ14 + 1000000 λ15
       + 1000000 λ16 + 1000000 λ17 + 1000000 λ18 + 1000000 λ19
       + 1000000 λ20 + 1000000 λ21 + 1000000 λ22 + 1000000 λ23
       + 1000000 λ24 + 1000000 λ25 + 1000000 λ26 + 1000000 λ27
       + 1000000 λ28 + 1000000 λ29 + 1000000 λ30 + 1000000 λ31
       + 1000000 λ32 + 1000000 λ33 + 1000000 λ34 + 1000000 λ35
       + 1000000 λ36 + 1000000 λ37 + 1000000 λ38 + 1000000 λ39
       + 1000000 λ40 + 1000000 λ41 + 1000000 λ42 + 1000000 λ43
       + 1000000 λ44 + 1000000 λ45 + 1000000 λ46 + 1000000 λ47
       + 1000000 λ48 + 1000000 λ49 + λ50 + λ51 + λ52 + λ53
       + λ54 + λ55 + λ56 + λ57 + λ58 + λ59 + λ60 + λ61
       + λ62 + λ63 + λ64 + λ65 + λ66 + λ67 + λ68 + λ69
       + λ70 + λ71 + λ72 + λ73 + λ74 + λ75 + λ76 + λ77
       + λ78 + λ79 + λ80 + λ81 + λ82 + λ83 + λ84 + λ85
       + λ86 + λ87 + λ88 + λ89 + λ90 + λ91 + λ92 + λ93
       + λ94 + λ95 + λ96 + λ97 + λ98 + λ99 + λ100
       + λ101 + λ102 + λ103 + λ104 + λ105 + λ106 + λ107
       + λ108 + λ109 + λ110 + λ111 + λ112 + λ113 + λ114
       + λ115 + λ116 + λ117 + λ118 + λ119 + λ120 + λ121
       + λ122 + λ123 + λ124 + λ125 + λ126 + λ127 + λ128
       + λ129 + λ130 + λ131 + λ132 + λ133 + λ134 + λ135
       + λ136 + λ137 + λ138 + λ139 + λ140 + λ141 + λ142
       + λ143 + λ144 + λ145 + λ146 + λ147 + λ148 + λ149
       + λ150 + λ151 + λ152 + λ153 + λ154 + λ155 + λ156
       + λ157 + λ158 + λ159 + λ160 + λ161 + λ162 + λ163
       + λ164 + λ165 + λ166 + λ167 + λ168 + λ169 + λ170
       + λ171 + λ172 + λ173 + λ174 + λ175 + λ176 + λ177
Subject To
 c1:  λ0 + λ121  = 1
 c2:  λ1 + λ120  = 1
 c3:  λ2 + λ119  = 1
 c4:  λ3 + λ118  = 1
 c5:  λ4 + λ116  = 1
 c6:  λ5 + λ117  = 1
 c7:  λ6 + λ115  = 1
 c8:  λ7 + λ114  = 1
 c9:  λ8 + λ113  = 1
 c10: λ9 + λ112  = 1
 c11: λ10 + λ111  = 1
 c12: λ11 + λ109  = 1
 c13: λ12 + λ110  = 1
 c14: λ13 + λ108  = 1
 c15: λ14 + λ106 + λ146  = 1
 c16: λ15 + λ107 + λ161  = 1
 c17: λ16 + λ104 + λ130 + λ139  = 1
 c18: λ17 + λ105 + λ141 + λ145  = 1
 c19: λ18 + λ99 + λ103 + λ126 + λ138 + λ144 + λ169  = 1
 c20: λ19 + λ96 + λ98 + λ152  = 1
 c21: λ20 + λ94 + λ95 + λ166  = 1
 c22: λ21 + λ90 + λ91 + λ164  = 1
 c23: λ22 + λ92 + λ93 + λ143 + λ171  = 1
 c24: λ23 + λ88 + λ89 + λ102 + λ129 + λ137 + λ142  = 1
 c25: λ24 + λ84 + λ87 + λ128 + λ135 + λ140  = 1
 c26: λ25 + λ81 + λ83 + λ127 + λ156 + λ160  = 1
 c27: λ26 + λ79 + λ80 + λ100 + λ133 + λ150 + λ155
      + λ168 + λ174  = 1
 c28: λ27 + λ77 + λ78 + λ86 + λ125 + λ132 + λ149 + λ154
      + λ158 + λ172 + λ173  = 1
 c29: λ28 + λ71 + λ73 + λ85 + λ97 + λ131 + λ148 + λ157
      + λ175  = 1
 c30: λ29 + λ74 + λ75 + λ76 + λ101 + λ153 + λ159 + λ170
       = 1
 c31: λ30 + λ69 + λ70 + λ82 + λ124 + λ134 + λ136 + λ147
      + λ176  = 1
 c32: λ31 + λ67 + λ68 + λ148 + λ153 + λ167 + λ177  = 1
 c33: λ32 + λ66 + λ68 + λ151 + λ154 + λ157  = 1
 c34: λ33 + λ66 + λ67 + λ147 + λ149 + λ158 + λ170  = 1
 c35: λ34 + λ64 + λ65 + λ100 + λ123 + λ134 + λ159
      + λ167  = 1
 c36: λ35 + λ63 + λ65 + λ101 + λ122 + λ136 + λ155
      + λ162 + λ173  = 1
 c37: λ36 + λ63 + λ64 + λ97 + λ133 + λ151 + λ165 + λ177
       = 1
 c38: λ37 + λ59 + λ62 + λ70 + λ132 + λ156 + λ162  = 1
 c39: λ38 + λ58 + λ59 + λ72 + λ76 + λ122 + λ127 + λ131
      + λ163 + λ168 + λ176  = 1
 c40: λ39 + λ61 + λ62 + λ69 + λ81 + λ150 + λ163 + λ165
      + λ172 + λ174 + λ175  = 1
 c41: λ40 + λ56 + λ57 + λ60 + λ78 + λ84 + λ160  = 1
 c42: λ41 + λ55 + λ56 + λ58 + λ80 + λ123 + λ124 + λ125
      + λ128 + λ129  = 1
 c43: λ42 + λ53 + λ55 + λ60 + λ61 + λ82 + λ85 + λ91
      + λ140 + λ152  = 1
 c44: λ43 + λ53 + λ54 + λ73 + λ83 + λ87 + λ88 + λ126
      + λ171  = 1
 c45: λ44 + λ52 + λ53 + λ72 + λ75 + λ90 + λ94 + λ161
       = 1
 c46: λ45 + λ51 + λ52 + λ54 + λ71 + λ77 + λ98 + λ164
      + λ169  = 1
 c47: λ46 + λ50 + λ52 + λ54 + λ55 + λ71 + λ74 + λ79
      + λ89 + λ99 + λ130  = 1
 c48: λ47 + λ50 + λ51 + λ56 + λ61 + λ72 + λ79 + λ86
      + λ92 + λ144 + λ145  = 1
 c49: λ48 + λ50 + λ51 + λ57 + λ58 + λ60 + λ74 + λ77
      + λ95 + λ96 + λ142 + λ143  = 1
 c50: λ49 + λ50 + λ51 + λ57 + λ59 + λ75 + λ86 + λ93
      + λ135 + λ137 + λ138 + λ139 + λ141 + λ146  = 1
Bounds
      λ26 = 0
      λ27 = 0
      λ28 = 0
      λ30 = 0
      λ33 = 0
      λ36 = 0
      λ37 = 0
      λ39 = 0
      λ59 = 0
      λ61 = 0
      λ62 = 0
      λ63 = 0
      λ64 = 0
      λ66 = 0
      λ67 = 0
      λ69 = 0
      λ71 = 0
      λ73 = 0
      λ77 = 0
      λ78 = 0
      λ79 = 0
      λ80 = 0
      λ81 = 0
      λ82 = 0
      λ85 = 0
      λ86 = 0
      λ100 = 0
      λ101 = 0
      λ124 = 0
      λ125 = 0
      λ131 = 0
      λ132 = 0
      λ133 = 0
      λ134 = 0
      λ136 = 0
      λ147 = 0
      λ151 = 0
      λ153 = 0
End
